; benchmark generated from python API
(set-info :status unknown)
(declare-datatypes ((IntState 0)) (((Mk1 (val1 Int)) (Mk2 (val2 Int)))))
 (declare-fun c_main_~i~6 () Int)
(declare-fun c_main_~j~6 () Int)
(declare-fun c_main_~k~6 () Int)
(assert
 (let (($x84 (<= c_main_~j~6 (* 2 c_main_~i~6))))
 (let (($x98 (exists ((v_nnf_20_st IntState) (val!176 Int) )(let ((?x56 (val2 v_nnf_20_st)))
 (let (($x74 (<= ?x56 3)))
 (let (($x105 (and (<= (+ ?x56 1) c_main_~k~6) (<= c_main_~j~6 (* 2 ?x56)) $x74)))
 (let (($x52 (not (= v_nnf_20_st (Mk1 val!176)))))
 (and $x52 $x105))))))
 ))
 (let (($x67 (<= c_main_~i~6 3)))
 (let (($x153 (<= c_main_~i~6 2)))
 (let (($x51 (exists ((v_nnf_22 Int) )(let (($x63 (<= v_nnf_22 3)))
 (let (($x113 (<= c_main_~j~6 (* 2 v_nnf_22))))
 (and (<= (+ v_nnf_22 2) c_main_~k~6) $x113 $x63))))
 ))
 (and (and $x67 $x51 $x84 $x153) (not (and $x67 $x98 $x84)))))))))
(check-sat)
